
Gurobi 6.0.4 (win64) logging started 06/18/15 16:03:13

Read LP format model from file C:\MT\repository\VRPTWMS\instances\mip\freight\N4-C_DV10-C_SV50_F10_4_No_1.lp
Reading time = 0.00 seconds
(null): 129 rows, 72 columns, 447 nonzeros
Optimize a model with 129 rows, 72 columns and 447 nonzeros
Model has 64 quadratic constraints
Coefficient statistics:
  Matrix range    [1e+00, 1e+06]
  Objective range [7e+04, 1e+07]
  Bounds range    [1e+00, 1e+06]
  RHS range       [1e+00, 1e+06]
Presolve removed 18 rows and 12 columns
Presolve time: 0.00s
Presolved: 215 rows, 112 columns, 988 nonzeros
Variable types: 52 continuous, 60 integer (42 binary)
Found heuristic solution: objective 2.100490e+07

Root relaxation: objective 1.140338e+07, 32 iterations, 0.00 seconds

    Nodes    |    Current Node    |     Objective Bounds      |     Work
 Expl Unexpl |  Obj  Depth IntInf | Incumbent    BestBd   Gap | It/Node Time

     0     0 1.1403e+07    0   14 2.1005e+07 1.1403e+07  45.7%     -    0s
     0     0     cutoff    0      2.1005e+07 2.1005e+07  0.00%     -    0s

Cutting planes:
  Learned: 1
  Gomory: 1
  Cover: 1
  Implied bound: 1
  Clique: 2
  GUB cover: 1

Explored 0 nodes (49 simplex iterations) in 0.01 seconds
Thread count was 2 (of 4 available processors)

Optimal solution found (tolerance 1.00e-04)
Best objective 2.100490000000e+07, best bound 2.100490000000e+07, gap 0.0%
k_c1	10000.0
k_c2	60000.0
k_c3	100000.0
k_c4	30000.0
k_dN	-0.0
o_1	-0.0
o_2	-0.0
o_3	-0.0
o_4	-0.0
p_1	-0.0
p_2	-0.0
p_3	-0.0
p_4	-0.0
phi_c1	12062.0
phi_c2	86205.0
phi_c3	81730.0
phi_c4	9319.0
phi_d0	100000.0
phi_dN	-0.0
tauD_c1	884925.0
tauD_c2	200000.0
tauD_c3	200000.0
tauD_c4	600000.0
tauD_d0	-0.0
tauD_dN	1000000.0
tauS_c1	30450.0
tauS_c2	868450.0
tauS_c3	851725.0
tauS_c4	102250.0
tauS_d0	-0.0
tauS_dN	80000.0
x_c1_dN	1.0
x_c2_c4	1.0
x_c3_c1	1.0
x_c4_dN	1.0
x_d0_c2	1.0
x_d0_c3	1.0
